CMD:
./solvers/bin/cadical --plain --no-reduce -t 1600 ./data/cnfs//pdtvisvending07/pdtvisvending07.89.cnf

c --- [ banner ] -------------------------------------------------------------
c 
c CaDiCaL SAT Solver
c Copyright (c) 2016-2024
c A. Biere, M. Fleury, N. Froleyks, K. Fazekas, F. Pollitt, T. Faller
c JKU Linz, University of Freiburg, TU Wien
c 
c Version 2.1.3 5296d3d2a9bf48c154ab2acb5e44625776d821bf
c g++ (Gentoo 12.3.1_p20230526 p2) 12.3.1 20230526 -Wall -Wextra -O3 -DNDEBUG
c Sat Aug 9 07:26:21 PDT 2025 Linux cedar2.int.cedar.computecanada.ca 5.14.0-362.24.2.el9_3.x86_64 x86_64
c 
c --- [ limit ] --------------------------------------------------------------
c 
c setting time limit to 1600 seconds real time (due to '-t 1600')
c 
c --- [ parsing input ] ------------------------------------------------------
c 
c reading DIMACS file from './data/cnfs//pdtvisvending07/pdtvisvending07.89.cnf'
c opening file to read './data/cnfs//pdtvisvending07/pdtvisvending07.89.cnf'
c found 'p cnf 86074 257344' header
c parsed 257344 clauses in 0.04 seconds process time
c 
c --- [ options ] ------------------------------------------------------------
c 
c   --compact=false                (different from default 'true')
c   --decompose=false              (different from default 'true')
c   --deduplicate=false            (different from default 'true')
c   --elim=false                   (different from default 'true')
c   --probe=false                  (different from default 'true')
c   --reduce=false                 (different from default 'true')
c   --subsume=false                (different from default 'true')
c   --ternary=false                (different from default 'true')
c   --transred=false               (different from default 'true')
c   --vivify=false                 (different from default 'true')
c 
c --- [ solving ] ------------------------------------------------------------
c 
c time measured in process time since initialization
c 
c  seconds  reductions  redundant  irredundant
c         MB    restarts       trail       variables
c          level   conflicts       glue         remaining
c 
c *  0.04 43  0 0   0    0    0  0% 0 254651 83985 98%
c {  0.04 43  0 0   0    0    0  0% 0 254651 83985 98%
c i  0.04 43  9 0   0    3    2  4% 1 254651 83972 98%
c i  0.04 43  9 0   0    4    2  4% 1 254651 83941 98%
c i  0.04 43  8 0   0    7    4  4% 1 254651 83918 97%
c i  0.04 43 25 0   1   61   49  6% 2 254651 83788 97%
c i  0.04 43 24 0   1   64   51  6% 2 254651 83764 97%
c i  0.04 43 24 0   1   65   51  6% 2 254651 83761 97%
c i  0.04 43 23 0   1   68   53  6% 2 254651 83448 97%
c i  0.10 44 180 0  27  830  804 44% 2 254651 83417 97%
c i  0.12 45 183 0  43  951  906 45% 2 254651 83402 97%
c i  0.13 45 180 0  48  969  922 44% 2 254651 83273 97%
c }  0.13 45 175 0  57 1000  953 43% 2 254651 83273 97%
c [  0.13 45  0 0  57 1000  953  0% 0 254651 83273 97%
c O  0.13 45 21 0  57 1002  955 14% 1 254651 83273 97%
c i  0.18 45 202 0  57 1741 1654 82% 5 254651 83270 97%
c ]  0.27 45 135 0  58 3001 2809 49% 9 254651 83270 97%
c {  0.27 45 175 0  58 3001 2809 43% 2 254651 83270 97%
c F  0.27 45 175 0  59 3003 2811 43% 2 254651 83270 97%
c i  0.29 45 139 0 133 3290 3059 35% 3 254651 83212 97%
c 
c  seconds   reductions  redundant  irredundant
c         MB     restarts       trail       variables
c           level   conflicts       glue         remaining
c 
c i  0.31 45 113 0 214 3615 3349 29% 3 254651 83155 97%
c i  0.44 46 75 0 479 5433 5027 28% 3 254651 83154 97%
c #  0.49 46 69 0 549 6004 5557 26% 3 254651 83154 97%
c i  0.52 46 66 0 621 6328 5849 25% 4 254651 83153 97%
c }  0.57 46 65 0 697 7004 6461 26% 4 254651 83153 97%
c [  0.57 46 135 0 697 7004 6461 49% 9 254651 83153 97%
c i  0.59 46 135 0 698 7116 6565 50% 8 254651 83144 97%
c i  0.62 46 138 0 698 7455 6887 52% 9 254651 83134 97%
c i  0.69 47 100 0 698 8689 8004 38% 7 254651 83133 97%
c I  0.75 47 108 0 699 10005 9192 35% 7 254651 83133 97%
c i  0.76 47 108 0 699 10027 9213 35% 7 254651 83102 97%
c i  0.77 47 105 0 699 10200 9344 34% 7 254651 83083 97%
c i  0.96 48 142 0 701 12856 11760 45% 7 254651 83082 97%
c ]  1.14 48 128 0 702 15004 13734 42% 7 254651 83082 97%
c {  1.14 48 65 0 702 15004 13734 26% 4 254651 83082 97%
c B  1.14 48 65 0 702 15007 13737 26% 4 254651 83082 97%
c i  1.25 48 60 0 869 15798 14448 25% 4 254651 83081 97%
c i  1.36 49 58 0 983 16772 15326 24% 4 254651 83066 97%
c i  1.42 49 57 0 1066 17192 15706 24% 4 254651 82872 96%
c i  1.42 49 56 0 1066 17193 15706 24% 4 254651 82688 96%
c 
c  seconds  reductions     redundant  irredundant
c         MB    restarts          trail       variables
c          level     conflicts        glue         remaining
c 
c i  1.58 49 55 0 1238 18928 17312 24% 4 254651 82685 96%
c i  1.58 49 55 0 1238 18947 17328 24% 4 254651 82500 96%
c i  1.73 49 52 0 1391 20699 18887 23% 4 254651 82296 96%
c W  1.86 49 52 0 1438 21008 18504 23% 4 244312 82296 96%
c i  2.01 49 51 0 1573 22440 19818 23% 4 244312 82057 95%
c i  2.01 49 50 0 1575 22507 19874 23% 4 244312 82037 95%
c i  2.08 49 49 0 1624 23181 20483 23% 4 244312 81971 95%
c i  2.11 49 49 0 1649 23383 20656 23% 4 244312 81799 95%
c i  2.19 49 48 0 1747 24096 21305 23% 4 244312 81768 95%
c i  2.19 49 48 0 1749 24102 21308 23% 4 244312 81765 95%
c i  2.19 49 48 0 1753 24124 21323 23% 4 244312 81197 94%
c i  2.25 49 47 0 1827 24536 21709 23% 4 244312 80877 94%
c i  2.36 49 46 0 1910 25616 22713 23% 4 244312 80661 94%
c F  2.69 49 46 0 2179 28010 24922 24% 4 244312 80660 94%
c i  2.75 49 46 0 2205 28415 25284 24% 4 244312 80639 94%
c i  2.75 49 46 0 2205 28417 25284 24% 4 244312 80012 93%
c i  2.81 49 46 0 2279 28709 25551 24% 4 244312 80003 93%
c i  3.12 49 44 0 2500 30545 27187 24% 4 244312 79628 93%
c i  3.16 49 44 0 2564 30882 27499 24% 4 244312 79400 92%
c }  3.20 49 44 0 2588 31005 27615 24% 4 244312 79400 92%
c 
c  seconds   reductions     redundant  irredundant
c         MB     restarts          trail       variables
c           level     conflicts        glue         remaining
c 
c [  3.20 49 128 0 2588 31005 27615 42% 7 244312 79400 92%
c i  3.50 50 128 0 2589 34045 30467 45% 8 244312 79181 92%
c B  3.73 51 120 0 2591 36011 32206 44% 8 244312 79181 92%
c i  3.84 51 119 0 2591 36899 32991 44% 8 244312 78994 92%
c i  3.87 51 119 0 2591 37158 33218 44% 8 244312 78791 92%
c i  3.87 51 119 0 2591 37161 33219 44% 8 244312 78589 91%
c i  3.89 51 118 0 2591 37344 33356 43% 8 244312 78387 91%
c i  3.90 51 118 0 2591 37346 33357 43% 8 244312 78386 91%
c i  3.92 51 117 0 2591 37535 33527 43% 8 244312 77798 90%
c i  3.93 51 117 0 2591 37546 33533 43% 8 244312 77366 90%
c i  3.93 51 116 0 2591 37610 33578 43% 8 244312 77287 90%
c i  3.97 51 115 0 2592 37833 33784 43% 8 244312 76871 89%
c i  4.06 51 110 0 2593 38869 34700 43% 8 244312 76862 89%
c i  4.22 51 103 0 2594 40364 36032 42% 7 244312 76004 88%
c i  4.23 51 103 0 2594 40442 36082 42% 7 244312 75561 88%
c i  4.23 51 103 0 2594 40444 36083 42% 7 244312 74954 87%
c i  4.24 51 102 0 2594 40555 36162 42% 7 244312 74676 87%
c i  4.25 51 102 0 2594 40584 36182 42% 7 244312 74594 87%
c ]  4.28 52 102 0 2594 40713 36284 42% 7 244312 74510 87%
c 0  4.28 52 102 0 2594 40713 36284 42% 7 244312 74510 87%
c 
c --- [ result ] -------------------------------------------------------------
c 
s UNSATISFIABLE
c 
c --- [ run-time profiling ] -------------------------------------------------
c 
c process time taken by individual solving procedures
c (percentage relative to process time for solving)
c 
c         4.24  100.00% search
c         2.37   55.83% unstable
c         1.79   42.15% stable
c         0.08    1.96% walk
c         0.04    0.93% parse
c         0.00    0.05% lucky
c         0.00    0.00% simplify
c   =================================
c         4.24   99.07% solve
c 
c last line shows process time for solving
c (percentage relative to total process time)
c 
c --- [ statistics ] ---------------------------------------------------------
c 
c chronological:             13664        33.56 %  of conflicts
c conflicts:                 40713      9605.44    per second
c decisions:                129003     30435.76    per second
c fixed:                     11564        13.43 %  of all variables
c learned:                   39378        96.72 %  per conflict
c learned_lits:            1076903       100.00 %  learned literals
c minimized:                     0         0.00 %  learned literals
c shrunken:                 162516        15.09 %  learned literals
c minishrunken:             251103        23.32 %  learned literals
c otfs:                        294         0.72 %  of conflict
c propagations:           69657348        16.43 M  per second
c rephased:                      8      5089.12    interval
c restarts:                   2594        15.70    interval
c stabilizing:                   3        48.39 %  of conflicts
c subsumed:                   2384         0.81 %  of all clauses
c strengthened:                284         0.10 %  of all clauses
c walked:                        1     40713.00    interval
c 
c seconds are measured in process time for solving
c 
c --- [ resources ] ----------------------------------------------------------
c 
c total process time since initialization:         4.28    seconds
c total real time since initialization:            4.30    seconds
c maximum resident set size of process:           50.60    MB
c 
c --- [ shutting down ] ------------------------------------------------------
c 
c exit 20
